Reading model...
...model read.
creating competitive generators file...
...competitive generators recorded.
Loading data...
.. real-time data read.
Compiling instance...
...instance created.
Creating Offer Mitigation (model will solve as dispatch if TRUE)...
...storage offer mitigation file created
Converting model to MPEC...
...converted
NOTE: initial MIP solve with only storage competitive to get feasible solution
Solving...

Welcome to IBM(R) ILOG(R) CPLEX(R) Interactive Optimizer 12.10.0.0
  with Simplex, Mixed Integer & Barrier Optimizers
5725-A06 5725-A29 5724-Y48 5724-Y49 5724-Y54 5724-Y55 5655-Y21
Copyright IBM Corp. 1988, 2019.  All Rights Reserved.

Type 'help' for a list of available commands.
Type 'help' followed by a command name for more
information on commands.

CPLEX> Logfile 'cplex.log' closed.
Logfile 'C:\Users\wenmi\Desktop\competitiveMPEC\logs\tmp5yq5fman.cplex.log' open.
CPLEX> New value for parallel optimization mode: -1
CPLEX> New value for mixed integer optimality gap tolerance: 0.05
CPLEX> New value for deterministic time limit in ticks: 100000
CPLEX> Problem 'C:\Users\wenmi\Desktop\competitiveMPEC\logs\tmpqxfs5_f5.pyomo.lp' read.
Read time = 0.31 sec. (27.41 ticks)
CPLEX> Problem name         : C:\Users\wenmi\Desktop\competitiveMPEC\logs\tmpqxfs5_f5.pyomo.lp
Objective sense      : Maximize
Variables            :  107779  [Nneg: 1,  Box: 44054,  Free: 8928,
                                 Binary: 54796]
Objective nonzeros   :   17522
Linear constraints   :  246995  [Less: 82866,  Greater: 118424,  Equal: 45705]
  Nonzeros           :  580829
  RHS nonzeros       :  134640

Variables            : Min LB: -5000.000        Max UB: 1000000.       
Objective nonzeros   : Min   : 0.1944444        Max   : 2500.000       
Linear constraints   :
  Nonzeros           : Min   : 0.1944444        Max   : 1000000.       
  RHS nonzeros       : Min   : 2.500000e-07     Max   : 1000000.       
CPLEX> Version identifier: 12.10.0.0 | 2019-11-26 | 843d4de2ae
CPXPARAM_Parallel                                -1
CPXPARAM_DetTimeLimit                            100000
CPXPARAM_MIP_Tolerances_MIPGap                   0.050000000000000003
Tried aggregator 3 times.
MIP Presolve eliminated 181798 rows and 41519 columns.
MIP Presolve added 6048 rows and 0 columns.
MIP Presolve modified 48972 coefficients.
Aggregator did 25857 substitutions.
Reduced MIP has 45388 rows, 38771 columns, and 125790 nonzeros.
Reduced MIP has 15258 binaries, 0 generals, 0 SOSs, and 0 indicators.
Presolve time = 0.33 sec. (338.95 ticks)
Probing fixed 816 vars, tightened 6902 bounds.
Probing time = 0.08 sec. (14.65 ticks)
Tried aggregator 2 times.
Detecting symmetries...
MIP Presolve eliminated 1824 rows and 1632 columns.
MIP Presolve modified 5513 coefficients.
Aggregator did 48 substitutions.
Reduced MIP has 43516 rows, 37091 columns, and 120366 nonzeros.
Reduced MIP has 14442 binaries, 0 generals, 0 SOSs, and 0 indicators.
Presolve time = 0.14 sec. (209.48 ticks)
Probing fixed 0 vars, tightened 168 bounds.
Probing time = 0.16 sec. (19.50 ticks)
Clique table members: 80707.
MIP emphasis: balance optimality and feasibility.
MIP search method: dynamic search.
Parallel mode: opportunistic, using up to 16 threads.
Root relaxation solution time = 0.47 sec. (1575.30 ticks)

        Nodes                                         Cuts/
   Node  Left     Objective  IInf  Best Integer    Best Bound    ItCnt     Gap

      0     0      -18.5387     2                    -18.5387     8281         
*     0+    0                          -18.5387      -18.5387             0.00%
      0     0        cutoff            -18.5387      -18.5387     8281    0.00%
Elapsed time = 1.52 sec. (2547.79 ticks, tree = 0.01 MB, solutions = 1)

Root node processing (before b&c):
  Real time             =    1.53 sec. (2551.58 ticks)
Parallel b&c, 16 threads:
  Real time             =    0.00 sec. (0.00 ticks)
  Sync time (average)   =    0.00 sec.
  Wait time (average)   =    0.00 sec.
                          ------------
Total (root+branch&cut) =    1.53 sec. (2551.58 ticks)

Solution pool: 1 solution saved.

MIP - Integer optimal solution:  Objective = -1.8538665000e+01
Solution time =    1.53 sec.  Iterations = 8281  Nodes = 0
Deterministic time = 2551.89 ticks  (1666.81 ticks/sec)

CPLEX> Incumbent solution written to file 'C:\Users\wenmi\Desktop\competitiveMPEC\logs\tmpidgdt1n3.cplex.sol'.
CPLEX> NOTE: no warmstart specified for MIP iteration, default behavior is true
NOTE: resolving with all competitive generators using storage-only solution to warmstart
Solving...

Welcome to IBM(R) ILOG(R) CPLEX(R) Interactive Optimizer 12.10.0.0
  with Simplex, Mixed Integer & Barrier Optimizers
5725-A06 5725-A29 5724-Y48 5724-Y49 5724-Y54 5724-Y55 5655-Y21
Copyright IBM Corp. 1988, 2019.  All Rights Reserved.

Type 'help' for a list of available commands.
Type 'help' followed by a command name for more
information on commands.

CPLEX> Logfile 'cplex.log' closed.
Logfile 'C:\Users\wenmi\Desktop\competitiveMPEC\logs\tmp62u4kvex.cplex.log' open.
CPLEX> New value for parallel optimization mode: -1
CPLEX> New value for mixed integer optimality gap tolerance: 0.05
CPLEX> New value for deterministic time limit in ticks: 100000
CPLEX> Problem 'C:\Users\wenmi\Desktop\competitiveMPEC\logs\tmpmn9vq8bu.pyomo.lp' read.
Read time = 0.30 sec. (27.45 ticks)
CPLEX> MIP start file 'C:\Users\wenmi\Desktop\competitiveMPEC\logs\tmpz_agz6zd.cplex.mst' read.
CPLEX> Problem name         : C:\Users\wenmi\Desktop\competitiveMPEC\logs\tmpmn9vq8bu.pyomo.lp
Objective sense      : Maximize
Variables            :  109219  [Nneg: 1,  Box: 45494,  Free: 8928,
                                 Binary: 54796]
Objective nonzeros   :   18914
Linear constraints   :  246995  [Less: 82866,  Greater: 118424,  Equal: 45705]
  Nonzeros           :  580829
  RHS nonzeros       :  134640

Variables            : Min LB: -5000.000        Max UB: 1000000.       
Objective nonzeros   : Min   : 0.1944444        Max   : 2500.000       
Linear constraints   :
  Nonzeros           : Min   : 0.1944444        Max   : 1000000.       
  RHS nonzeros       : Min   : 2.500000e-07     Max   : 1000000.       
CPLEX> Version identifier: 12.10.0.0 | 2019-11-26 | 843d4de2ae
CPXPARAM_Parallel                                -1
CPXPARAM_DetTimeLimit                            100000
CPXPARAM_MIP_Tolerances_MIPGap                   0.050000000000000003
1 of 1 MIP starts provided solutions.
MIP start 'm1' defined initial solution with objective -18.5387.
Tried aggregator 3 times.
MIP Presolve eliminated 181798 rows and 42959 columns.
MIP Presolve added 6048 rows and 0 columns.
MIP Presolve modified 48972 coefficients.
Aggregator did 25857 substitutions.
Reduced MIP has 45388 rows, 38771 columns, and 125790 nonzeros.
Reduced MIP has 15258 binaries, 0 generals, 0 SOSs, and 0 indicators.
Presolve time = 0.33 sec. (339.70 ticks)
Probing fixed 816 vars, tightened 6902 bounds.
Probing time = 0.08 sec. (14.65 ticks)
Tried aggregator 2 times.
Detecting symmetries...
MIP Presolve eliminated 1824 rows and 1632 columns.
MIP Presolve modified 5513 coefficients.
Aggregator did 48 substitutions.
Reduced MIP has 43516 rows, 37091 columns, and 120366 nonzeros.
Reduced MIP has 14442 binaries, 0 generals, 0 SOSs, and 0 indicators.
Presolve time = 0.13 sec. (209.50 ticks)
Probing fixed 0 vars, tightened 156 bounds.
Probing time = 0.13 sec. (15.39 ticks)
Clique table members: 79933.
MIP emphasis: balance optimality and feasibility.
MIP search method: dynamic search.
Parallel mode: opportunistic, using up to 16 threads.
Root relaxation solution time = 0.55 sec. (1624.59 ticks)

        Nodes                                         Cuts/
   Node  Left     Objective  IInf  Best Integer    Best Bound    ItCnt     Gap

*     0+    0                          -18.5387  9461748.9777              --- 
      0     0    13566.5510   437      -18.5387    13566.5510     9017     --- 
*     0+    0                          -18.5386    13566.5510              --- 
      0     0    13447.2919   437      -18.5386     Cuts: 294     9329     --- 
      0     0    13447.2919   437      -18.5386     Cuts: 442     9477     --- 
      0     0    13447.2919   437      -18.5386     Cuts: 400     9567     --- 
      0     0    13447.2919   437      -18.5386     Cuts: 118     9620     --- 
      0     2    13447.2919    56      -18.5386    13447.2919     9620     --- 
Elapsed time = 5.33 sec. (5310.25 ticks, tree = 0.02 MB, solutions = 2)
    118    56    11052.3303    42      -18.5386    12791.3804    10945     --- 
    293    84    10938.7115    44      -18.5386    12791.3804    12412     --- 
    477   116     9234.9276    33      -18.5386    12791.3804    14665     --- 
    663   132    infeasible            -18.5386    12791.3804    17616     --- 
    813   154     5231.4430    20      -18.5386    12791.3804    21473     --- 
    948   196     4746.0890    37      -18.5386    12791.3804    26928     --- 
   1089   243        cutoff            -18.5386    12791.3804    34476     --- 
   1185   226     1374.3975     8      -18.5386    12791.3804    32015     --- 
   1323   240        cutoff            -18.5386    10898.7476    38837     --- 

Implied bound cuts applied:  2
Flow cuts applied:  28
Mixed integer rounding cuts applied:  15
Gomory fractional cuts applied:  21

Root node processing (before b&c):
  Real time             =    3.83 sec. (5197.33 ticks)
Parallel b&c, 16 threads:
  Real time             =   10.95 sec. (3122.65 ticks)
  Sync time (average)   =    0.71 sec.
  Wait time (average)   =    0.00 sec.
                          ------------
Total (root+branch&cut) =   14.78 sec. (8319.97 ticks)

Solution pool: 2 solutions saved.

MIP - Integer optimal solution:  Objective = -1.8538646907e+01
Solution time =   14.80 sec.  Iterations = 52210  Nodes = 1804
Deterministic time = 8320.29 ticks  (562.33 ticks/sec)

CPLEX> Incumbent solution written to file 'C:\Users\wenmi\Desktop\competitiveMPEC\logs\tmpaw8cnr4w.cplex.sol'.
CPLEX> Exporting results... 
